c CryptoMiniSat version 5.12.1
c CMS Copyright (C) 2009-2020 Authors of CryptoMiniSat, see AUTHORS file
c CMS SHA revision b4ab662f79024af8ebdd295f9c93d7a522b070a7
c Using VMTF code by Armin Biere from CaDiCaL
c Using Yalsat by Armin Biere, see Balint et al. Improving implementation of SLS solvers [...], SAT'14
c Using WalkSAT by Henry Kautz, see Kautz and Selman Pushing the envelope: planning, propositional logic, and stochastic search, AAAI'96,
c CMS is MIT licensed
c Using code from 'When Boolean Satisfiability Meets Gauss-E. in a Simplex Way'
c       by C.-S. Han and J.-H. Roland Jiang in CAV 2012. Fixes by M. Soos
c Using CCAnr from 'CCAnr: A Conf. Checking Based Local Search Solver [...]'
c       by Shaowei Cai, Chuan Luo, and Kaile Su, SAT 2015
c CMS compilation env CMAKE_CXX_COMPILER = /usr/bin/c++ | CMAKE_CXX_FLAGS =  -fno-stack-protector -fvisibility=hidden -Wlogical-op -Wrestrict -Wnull-dereference -Wdouble-promotion -Wshadow -Wformat=2 -Wextra-semi -pedantic | COMPILE_DEFINES =  -DRDB0_ONLY_FEATURES -DNDEBUG -D_FORTIFY_SOURCE=0 -DUSE_ZLIB -DYALSAT_FPU | STATICCOMPILE = ON | ONLY_SIMPLE =  | STATS = OFF | SQLITE3_FOUND =  | ZLIB_FOUND = TRUE | VALGRIND_FOUND =  | ENABLE_TESTING = OFF | SLOW_DEBUG = OFF | ENABLE_ASSERTIONS = OFF | PYTHON_EXECUTABLE =  | PYTHON_LIBRARY =  | PYTHON_INCLUDE_DIRS =  | MY_TARGETS =  | LARGEMEM = OFF | LIMITMEM = OFF | BREAKID_LIBRARIES =  | BREAKID-VER = . | BOSPHORUS_LIBRARIES =  | BOSPH-VER = . | 
c CMS compiled with gcc version 9.4.0
c Executed with command line: ./cryptominisat5 filesolver/cnf_for_w100_p6.cnf
c Reading file 'filesolver/cnf_for_w100_p6.cnf'
c -- header says num vars:           1101
c -- header says num clauses:       20162
c -- clauses added: 20161
c -- xor clauses added: 0
c -- vars added 1101
c Parsing time: 0.01 s
c [branch] adjusting to: vsid (from: vsid) var_decay:0.95 descr: VSIDS
c rst  geom  stb   vs     1   186    1101   20K    11    5.59    5.59     0     1   185     0  245.39  245.39
c rst  geom  stb   vs     2   308    1101   20K    11    5.59    5.59     0     2   306     0  237.81  237.81
c  res  pol bran  nres  conf freevar  IrrL  IrrB l/longC  l/allC RedL0 RedL1 RedL2  RedB l/longC  l/allC
c rst  geom  stb   vs     3   442    1101   20K    11    5.59    5.59     1    18   423     0  192.08  192.08
c rst  geom  stb   vs     4   589    1101   20K    11    5.59    5.59     2    49   538     0  158.06  158.06
c rst  geom  stb   vs     5   750    1101   20K    11    5.59    5.59     2    84   664     0  133.72  133.72
c rst  geom  stb   vs     6   927    1101   20K    11    5.59    5.59     3   102   822     0  120.62  120.62
c rst  geom  stb   vs     7  1121    1101   20K    11    5.59    5.59     4   142   975     0  109.28  109.28
c rst  geom  stb   vs     8  1335    1101   20K    11    5.59    5.59     8   220  1107     0   95.76   95.76
c rst  geom  stb   vs     9  1569    1101   20K    11    5.59    5.59    21   279  1269     0   86.49   86.49
c rst  geom  stb   vs    10  1827    1101   20K    11    5.59    5.59    25   351  1451     0   76.27   76.27
c rst  geom  stb   vs    11  2109    1101   20K    11    5.59    5.59    70   469  1570     0   68.17   68.17
c rst  geom  stb   vs    12  2419    1101   20K    11    5.59    5.59    84   530  1805     0   64.34   64.34
c rst  geom  stb   vs    13  2760    1101   20K    11    5.59    5.59    86   635  2039     0   58.02   58.02
c rst  geom  stb   vs    14  3133    1101   20K    11    5.59    5.59    89   728  2316     0   53.24   53.24
c rst  geom  stb   vs    15  3543    1101   20K    11    5.59    5.59   105   806  2632     0   49.78   49.78
c rst  geom  stb   vs    16  3994    1101   20K    11    5.59    5.59   117   919  2958     0   46.30   46.30
c rst  geom  stb   vs    17  4491    1101   20K    11    5.59    5.59   119  1006  3366     0   44.85   44.85
c rst  geom  stb   vs    18  5034    1101   20K    11    5.59    5.59   137  1114  3783     0   44.21   44.21
c [distill-long-red0] cls tried: 137/137 T: 0.00 T-out: N T-r: 99.96%
c [distill-long-red1] cls tried: 1114/1114 T: 0.03 T-out: N T-r: 23.04%
c rst  geom  stb   vs    19  5632    1101   20K    11    5.59    5.59   142  1163  4326     1   43.39   43.38
c [branch] adjusting to: vmtf (from: vsid) var_decay:0.95 descr: VMTF
c rst  luby ibes  vmt    20  5735    1101   20K    11    5.59    5.59   145  1197  4392     1   42.90   42.89
c rst  luby ibes  vmt    21  5838    1101   20K    11    5.59    5.59   149  1227  4461     1   42.41   42.40
c rst  luby ibes  vmt    22  6039    1101   20K    11    5.59    5.59   159  1282  4596     2   41.60   41.58
c rst  luby ibes  vmt    23  6141    1101   20K    11    5.59    5.59   161  1312  4666     2   41.15   41.14
c rst  luby ibes  vmt    24  6242    1101   20K    11    5.59    5.59   163  1339  4738     2   40.80   40.79
c rst  luby ibes  vmt    25  6444    1101   20K    11    5.59    5.59   169  1376  4897     2   40.12   40.11
c rst  luby ibes  vmt    26  6847    1101   20K    11    5.59    5.59   183  1470  5191     3   38.48   38.47
c rst  luby ibes  vmt    27  6948    1101   20K    11    5.59    5.59   183  1511  5251     3   38.21   38.20
c rst  luby ibes  vmt    28  7049    1101   20K    11    5.59    5.59   195  1552  5299     3   37.84   37.83
c rst  luby ibes  vmt    29  7250    1101   20K    11    5.59    5.59   208  1621  5417     4   37.17   37.15
c rst  luby ibes  vmt    30  7351    1101   20K    11    5.59    5.59   208  1632  5507     4   36.92   36.90
c rst  luby ibes  vmt    31  7454    1101   20K    11    5.59    5.59   213  1645  5592     4   36.69   36.67
c rst  luby ibes  vmt    32  7655    1101   20K    11    5.59    5.59   221  1712  5718     4   36.18   36.16
c rst  luby ibes  vmt    33  8056    1101   20K    11    5.59    5.59   257  1849  5945     5   34.96   34.94
c rst  luby ibes  vmt    34  8857    1101   20K    11    5.59    5.59   305  2077  6469     6   33.96   33.94
c rst  luby ibes  vmt    35  8959    1101   20K    11    5.59    5.59   307  2114  6532     6   33.79   33.77
c rst  luby ibes  vmt    36  9061    1101   20K    11    5.59    5.59   315  2147  6593     6   33.63   33.61
c rst  luby ibes  vmt    37  9262    1101   20K    11    5.59    5.59   319  2175  6762     6   33.37   33.35
c rst  luby ibes  vmt    38  9365    1101   20K    11    5.59    5.59   321  2196  6842     6   33.19   33.17
c rst  luby ibes  vmt    39  9467    1101   20K    11    5.59    5.59   327  2210  6924     6   33.09   33.07
c rst  luby ibes  vmt    40  9669    1101   20K    11    5.59    5.59   333  2266  7064     6   32.78   32.76
c rst  luby ibes  vmt    41 10070    1101   20K    11    5.59    5.59  1137  1570  7357     6   32.24   32.22
c rst  luby ibes  vmt    42 10171    1101   20K    11    5.59    5.59  1145  1588  7432     6   32.07   32.05
c rst  luby ibes  vmt    43 10273    1101   20K    11    5.59    5.59  1172  1639  7456     6   32.00   31.98
c rst  luby ibes  vmt    44 10475    1101   20K    11    5.59    5.59  1174  1679  7616     6   31.80   31.78
c rst  luby ibes  vmt    45 10577    1101   20K    11    5.59    5.59  1178  1712  7681     6   31.70   31.69
c rst  luby ibes  vmt    46 10679    1101   20K    11    5.59    5.59  1179  1725  7769     6   31.56   31.54
c rst  luby ibes  vmt    47 10881    1101   20K    11    5.59    5.59  1196  1805  7874     6   31.34   31.32
c rst  luby  svd  vmt    48 11284    1101   20K    11    5.59    5.59  1210  1888  8179     7   31.19   31.17
c rst  luby  svd  vmt    49 12086    1101   20K    11    5.59    5.59  1255  2110  8713     8   30.11   30.09
c [branch] adjusting to: vsid (from: vmtf) var_decay:0.95 descr: VSIDS
c [distill-bin] useful: 0/11/11 lits-rem: 0 cl-rem: 0 0-depth-assigns: 0 T: 0.00 T-out: N
c rst  geom  svd   vs    50 12198    1101   20K    11    5.59    5.59  1263  2164  8763     8   29.97   29.95
c rst  geom  svd   vs    51 12206    1101   20K    11    5.59    5.59  1266  2165  8767     8   29.96   29.94
c ------- FINAL TOTAL SEARCH STATS ---------
c UIP search time          : 0.62        (98.42     % time)
c All times are for this thread only except if explicitly specified
c restarts                 : 51          (239.33    confls per restart)
c blocked restarts         : 0           (0.00      per normal restart)
c time                     : 0.62        
c decisions                : 22568       (0.00      % random)
c propagations             : 594K        (960K      props/s)
c decisions/conflicts      : 1.85        
c conflicts                : 12206       
c LEARNT stats
c units learnt             : 0           (0.00      % of conflicts)
c bins learnt              : 7           (0.06      % of conflicts)
c long learnt              : 12199       (99.94     % of conflicts)
c red which0               : 476         (3.90      % of confl)
c SEAMLESS HYPERBIN&TRANS-RED stats
c advProp called           : 0           
c hyper-bin add bin        : 0           (0.00      bin/call)
c trans-red rem irred bin  : 0           (0.00      bin/call)
c trans-red rem red bin    : 0           (0.00      bin/call)
c CONFL LITS stats
c orig                     : 384126      (31.47     lit/confl)
c recurs-min effective     : 4741        (38.84     % attempt successful)
c recurs-min lits          : 18027       (4.69      % less overall)
c permDiff call%           : 28.04       (0.00      % attempt successful)
c permDiff lits-rem        : 0           (0.00      less lits/cl on attempts)
c further-min call%        : 0.08        (0.00      % attempt successful)
c bintri-min lits          : 0           (0.00      % less overall)
c final avg                : 29.99       
c all-threads sum CPU time : 0.62         s
c PROP stats
c Mbogo-props              : 3.14        (5.07      / sec)
c MHyper-props             : 0.00        (0.00      / sec)
c Mprops                   : 0.59        (0.96      / sec)
c -------- OccSimplifier STATS ----------
c time                     : 0.00        (0.00      % var-elim)
c called                   : 0           (0.00      s per call)
c 0-depth assigns          : 0           (0.00      % vars)
c -------- OccSimplifier STATS END ----------
c -------- SubsumeStrengthen STATS ----------
c cl-subs                  : 0            Clauses
c cl-str rem lit           : 0            Lits
c cl-sub T                 : 0.00         s
c cl-str T                 : 0.00         s
c -------- SubsumeStrengthen STATS END ----------
c ----- SCC STATS --------
c time                     : 0.00        (0.00      per call)
c called                   : 0           (0.00      new found per call)
c found                    : 0           (0.00      % of all found)
c bogoprops                : 0           % of all found
c ----- SCC STATS END --------
c --------- VAR REPLACE STATS ----------
c time                     : 0.00        (0.00      per call)
c trees' crown             : 0           (0.00      % of vars)
c 0-depth assigns          : 0           (0.00      % vars)
c lits replaced            : 0           
c bin cls removed          : 0           
c long cls removed         : 0           
c long lits removed        : 0           
c bogoprops                : 0           
c --------- VAR REPLACE STATS END ----------
c vrep replace time        : 0.00        (0.00      % time)
c vrep tree roots          : 0           
c vrep trees' crown        : 0           (0.00      leafs/tree)
c -------- DISTILL-BIN STATS --------
c time                     : 0.00        (0.00      per call)
c timed out                : 0           (0.00      % of calls)
c distill/checked/potential: 0          /11/11
c lits-rem                 : 0           
c 0-depth-assigns          : 0           (0.00      % of vars)
c -------- DISTILL STATS END --------
c -------- STRENGTHEN STATS --------
c --> watch-based on irred cls
c time                     : 0.00        (0.00      s/call)
c shrinked/tried/total     : 0          /0/0
c subsumed/tried/total     : 0          /0/0
c lits-rem                 : 0           (0.00      % of lits tried)
c called                   : 0           (0.00      % ran out of time)
c --> watch-based on red cls
c time                     : 0.00        (0.00      s/call)
c shrinked/tried/total     : 0          /0/0
c subsumed/tried/total     : 0          /0/0
c lits-rem                 : 0           (0.00      % of lits tried)
c called                   : 0           (0.00      % ran out of time)
c -------- STRENGTHEN STATS END --------
c -------- IMPLICIT SUB  STATS --------
c time                     : 0.00        (0.00      per call)
c timed out                : 0           (0.00      % of calls)
c rem bins                 : 0           
c -------- IMPLICIT SUB STATS END --------
c Mem used                 : 8           MB
c Mem for longclauses      : 3           MB (40.47     %)
c Mem for watch alloc      : 1           MB (19.69     %)
c Mem for watch array      : 0           MB (0.75      %)
c Mem for assings&vardata  : 0           MB (0.58      %)
c Mem for search&solve     : 0           MB (1.08      %)
c Mem for renumberer       : 0           MB (0.10      %)
c Mem for occsimplifier    : 0           MB (0.00      %)
c Mem for varReplacer&SCC  : 0           MB (0.05      %)
c Mem for impl subsume     : 0           MB (0.00      %)
c Mem for 3 distills       : 0           MB (0.01      %)
c Accounted for mem (rss)  : 62.74       %
c Accounted for mem (vm)   : 51.04       %
c restarts                 : 51          (239.33    confls per restart)
c blocked restarts         : 0           (0.00      per normal restart)
c time                     : 0.62        
c decisions                : 22568       (0.00      % random)
c propagations             : 594K        (960K      props/s)
c decisions/conflicts      : 1.85        
c conflicts                : 12206       
c conf lits non-minim      : 384126      (31.47     lit/confl)
c conf lits final          : 29.99       
c red which0               : 476         (3.90      % of confl)
c props/decision           : 0.00        
c props/conflict           : 0.00        
c 0-depth assigns          : 0           (0.00      % vars)
c 0-depth assigns by CNF   : 0           (0.00      % vars)
c reduceDB time            : 0.00        (0.00      % time)
c OccSimplifier time       : 0.00        (0.00      % time)
c [occur] 0.00 is overhead
c [occur] link-in T: 0.00 cleanup T: 0.00
c [occ-substr] long subBySub: 0 subByStr: 0 lits-rem-str: 0 T: 0.00
c SCC time                 : 0.00        (0.00      % time)
c [scc] new: 0 BP 0M  T: 0.00
c vrep replace time        : 0.00        (0.00      % time)
c vrep tree roots          : 0           
c vrep trees' crown        : 0           (0.00      leafs/tree)
c distill long time        : 0.04        (5.78      % time)
c distill bin time         : 0.00        (0.00      % time)
c strength cache-irred time: 0.00        (0.00      % time)
c strength cache-red time  : 0.00        (0.00      % time)
c avg cls in red 0         : 338.60      
c avg cls in red 1         : 1246.55     
c avg cls in red 2         : 4514.57     
c Conflicts in UIP         : 12206       (19401.64  confl/time_this_thread)
c Max Memory (rss) used    : 8496 kB     
c Total time (this thread) : 0.63        
s SATISFIABLE
v -1 2 -3 -4 5 -6 7 8 9 -10 -11 -12 -13 -14 -15 -16 -17 -18 -19 -20 -21 -22 -23 
v -24 -25 -26 -27 -28 -29 30 -31 32 33 -34 -35 -36 37 38 39 -40 -41 -42 43 44 
v -45 46 47 -48 49 -50 -51 -52 53 -54 -55 56 -57 58 -59 60 61 62 63 -64 65 -66 
v -67 68 69 70 -71 -72 -73 74 75 76 -77 -78 79 -80 -81 82 -83 84 85 86 -87 88 
v 89 -90 91 -92 93 -94 -95 -96 -97 -98 -99 -100 -101 -102 103 104 105 -106 107 
v -108 -109 110 -111 -112 -113 -114 -115 -116 -117 -118 -119 -120 -121 -122 
v -123 -124 -125 -126 -127 -128 -129 130 -131 -132 133 134 135 136 -137 -138 
v -139 140 141 142 143 -144 145 -146 -147 -148 149 -150 151 -152 -153 154 155 
v 156 157 -158 -159 160 161 162 163 -164 165 166 -167 -168 -169 -170 171 172 
v 173 -174 -175 -176 -177 178 -179 180 181 182 -183 184 -185 186 187 -188 -189 
v -190 -191 192 193 -194 -195 -196 -197 -198 -199 -200 -201 202 -203 -204 205 
v -206 207 208 209 -210 -211 -212 -213 -214 -215 -216 -217 -218 -219 -220 -221 
v -222 -223 -224 -225 -226 -227 -228 -229 -230 231 -232 -233 234 235 -236 237 
v 238 239 -240 241 242 243 -244 245 -246 247 -248 249 250 251 252 -253 -254 255 
v 256 -257 -258 -259 -260 261 262 263 264 -265 266 267 -268 -269 270 -271 -272 
v -273 274 -275 -276 -277 278 -279 280 -281 282 -283 -284 -285 -286 287 288 
v -289 -290 291 292 293 294 -295 -296 -297 -298 -299 -300 -301 -302 303 304 305 
v -306 307 -308 -309 310 -311 -312 -313 -314 -315 -316 -317 -318 -319 -320 -321 
v -322 -323 -324 -325 -326 -327 -328 -329 -330 -331 332 -333 334 -335 336 337 
v -338 339 340 341 -342 343 -344 -345 346 -347 -348 349 350 351 -352 -353 -354 
v 355 356 357 -358 -359 360 -361 362 363 364 365 -366 367 -368 369 -370 -371 
v 372 -373 -374 -375 376 -377 378 379 -380 381 382 -383 -384 -385 386 387 388 
v -389 -390 -391 392 393 -394 395 -396 -397 -398 -399 -400 -401 402 -403 -404 
v 405 -406 407 408 409 -410 -411 -412 -413 -414 -415 -416 -417 -418 -419 -420 
v -421 -422 -423 -424 -425 -426 -427 -428 -429 -430 -431 432 433 -434 -435 -436 
v -437 438 439 -440 441 -442 443 444 445 -446 447 -448 -449 -450 -451 452 453 
v 454 -455 -456 -457 -458 459 460 -461 462 463 464 465 -466 -467 468 469 470 
v 471 -472 -473 474 -475 476 -477 -478 -479 480 -481 482 483 484 485 -486 -487 
v -488 489 490 491 492 -493 -494 495 -496 -497 -498 -499 -500 -501 -502 503 504 
v 505 -506 507 -508 -509 510 -511 -512 -513 -514 -515 -516 -517 -518 -519 -520 
v -521 -522 -523 -524 -525 -526 -527 -528 -529 -530 531 532 533 534 -535 -536 
v 537 538 -539 -540 -541 -542 543 -544 545 -546 547 -548 -549 -550 551 -552 
v -553 -554 555 -556 -557 558 559 -560 561 562 563 564 -565 -566 -567 -568 569 
v 570 -571 -572 573 574 575 576 -577 578 -579 580 -581 582 583 584 -585 586 587 
v 588 -589 590 591 -592 -593 594 -595 -596 -597 -598 -599 -600 -601 602 603 604 
v -605 -606 -607 608 609 610 -611 -612 -613 -614 -615 -616 -617 -618 -619 -620 
v -621 -622 -623 -624 -625 -626 -627 -628 -629 630 631 -632 -633 634 -635 -636 
v -637 -638 639 -640 -641 -642 -643 644 645 646 -647 -648 649 -650 651 -652 653 
v -654 655 656 -657 -658 659 660 -661 -662 -663 664 665 -666 -667 668 -669 -670 
v -671 -672 673 -674 -675 -676 -677 678 679 680 -681 -682 683 -684 685 -686 687 
v -688 689 690 -691 -692 693 694 -695 -696 -697 -698 -699 -700 -701 -702 -703 
v -704 -705 -706 -707 -708 -709 -710 -711 -712 -713 -714 -715 -716 -717 -718 
v -719 -720 -721 -722 -723 -724 -725 -726 -727 -728 -729 730 731 732 -733 -734 
v 735 736 737 738 -739 740 741 742 -743 -744 -745 -746 747 -748 749 -750 -751 
v -752 -753 754 -755 756 757 758 759 760 -761 -762 -763 764 765 766 -767 -768 
v 769 770 771 772 -773 774 775 776 -777 -778 -779 -780 781 -782 783 -784 -785 
v -786 -787 788 -789 790 791 792 793 794 -795 -796 -797 -798 -799 -800 -801 802 
v 803 804 -805 -806 -807 808 809 810 -811 -812 -813 -814 -815 -816 -817 -818 
v -819 -820 -821 -822 -823 -824 -825 -826 -827 -828 -829 -830 -831 832 833 -834 
v 835 -836 -837 -838 839 -840 841 842 -843 -844 -845 -846 -847 -848 849 850 
v -851 852 -853 -854 -855 856 -857 858 859 -860 -861 -862 -863 -864 -865 866 
v 867 -868 869 -870 -871 -872 873 -874 875 876 -877 -878 -879 -880 -881 -882 
v 883 884 -885 886 -887 -888 -889 890 -891 892 893 -894 -895 -896 -897 -898 
v -899 -900 -901 -902 -903 -904 -905 -906 -907 -908 -909 -910 -911 -912 -913 
v -914 -915 -916 -917 -918 -919 -920 -921 -922 -923 -924 -925 -926 -927 -928 
v -929 -930 931 -932 933 -934 -935 936 -937 938 939 940 941 -942 -943 -944 945 
v 946 947 -948 949 950 -951 -952 -953 -954 -955 956 957 958 959 960 961 -962 
v -963 -964 965 -966 967 -968 -969 970 -971 972 973 974 975 -976 -977 -978 979 
v 980 981 -982 983 984 -985 -986 -987 -988 -989 990 991 992 993 994 995 -996 
v -997 -998 -999 -1000 -1001 1002 1003 1004 -1005 -1006 -1007 1008 1009 1010 
v -1011 -1012 -1013 -1014 -1015 -1016 -1017 -1018 -1019 -1020 -1021 -1022 -1023 
v -1024 -1025 -1026 -1027 -1028 -1029 -1030 1031 -1032 -1033 1034 -1035 -1036 
v 1037 -1038 1039 -1040 1041 -1042 -1043 1044 -1045 -1046 -1047 -1048 -1049 
v -1050 1051 1052 1053 1054 1055 -1056 -1057 1058 -1059 1060 1061 -1062 -1063 
v -1064 1065 -1066 -1067 1068 -1069 -1070 1071 -1072 1073 -1074 1075 -1076 
v -1077 1078 -1079 -1080 -1081 -1082 -1083 -1084 1085 1086 1087 1088 1089 -1090 
v -1091 1092 -1093 1094 1095 -1096 -1097 -1098 -1099 -1100 -1101 0
